
List of user-set options:

                                    Name   Value                used
                           compl_inf_tol = 1                     yes
                         constr_viol_tol = 1                     yes
                            dual_inf_tol = 1000                  yes
                           linear_solver = ma97                  yes
                              ma86_small = 1e-30                  no
                                  ma86_u = 0.0001                 no
                              ma97_order = best                  yes
                              ma97_small = 1e-30                 yes
                            ma97_switch1 = at_start              yes
                            ma97_switch2 = od_hd_reuse           yes
                                  ma97_u = 1e-06                 yes
                               ma97_umax = 0.5                   yes
                                max_iter = 1000                  yes
                    max_refinement_steps = 20                    yes
                    min_refinement_steps = 5                     yes
                                 mu_init = 1e-06                 yes
           mu_superlinear_decrease_power = 1.25                  yes
                   nlp_scaling_min_value = 1e-08                 yes
                        option_file_name = Preset_Case_88_pf.opt  yes
                             output_file = ./tmp/Preset_Case_88_pf.output  yes
                      print_user_options = yes                   yes
        required_infeasibility_reduction = 1                      no
                                     tol = 1e-08                 yes
                   warm_start_bound_frac = 1e-20                 yes
                   warm_start_bound_push = 1e-20                 yes
                   warm_start_init_point = yes                   yes
              warm_start_mult_bound_push = 1e-20                 yes
                warm_start_mult_init_max = 1e+40                 yes
             warm_start_slack_bound_frac = 1e-20                 yes
             warm_start_slack_bound_push = 1e-20                 yes

******************************************************************************
This program contains Ipopt, a library for large-scale nonlinear optimization.
 Ipopt is released as open source code under the Eclipse Public License (EPL).
         For more information visit http://projects.coin-or.org/Ipopt
******************************************************************************

This is Ipopt version 3.12.10, running with linear solver ma97.

Number of nonzeros in equality constraint Jacobian...:   123443
Number of nonzeros in inequality constraint Jacobian.:      213
Number of nonzeros in Lagrangian Hessian.............:    49069

Total number of variables............................:    31591
                     variables with only lower bounds:    12912
                variables with lower and upper bounds:    15130
                     variables with only upper bounds:        0
Total number of equality constraints.................:    31483
Total number of inequality constraints...............:       25
        inequality constraints with only lower bounds:        4
   inequality constraints with lower and upper bounds:        0
        inequality constraints with only upper bounds:       21

iter    objective    inf_pr   inf_du lg(mu)  ||d||  lg(rg) alpha_du alpha_pr  ls
   0 -5.4308427e+00 4.00e-03 1.02e+00  -6.0 0.00e+00    -  0.00e+00 0.00e+00   0
   1 -5.4392820e+00 8.60e+00 4.21e+01  -6.0 2.83e+05    -  1.16e-04 1.60e-03h  1
   2 -5.4392472e+00 8.60e+00 4.21e+01  -6.0 3.02e+03    -  1.07e-04 3.10e-05h  1
   3 -5.4322699e+00 8.58e+00 1.38e+02  -6.0 2.65e+04    -  7.38e-05 2.23e-03h  1
   4 -5.4312101e+00 8.57e+00 1.43e+02  -6.0 4.27e+03    -  1.13e-01 1.02e-03h  2
   5 -5.4311601e+00 8.57e+00 1.43e+02  -6.0 7.81e+04    -  9.68e-04 8.71e-05h  8
   6 -5.4303343e+00 8.56e+00 1.40e+02  -6.0 4.23e+03    -  4.53e-03 7.99e-04h  9
   7 -5.4302300e+00 8.56e+00 1.40e+02  -6.0 4.23e+03    -  2.84e-03 1.01e-04h 12
   8 -5.4302030e+00 8.56e+00 1.41e+02  -6.0 4.23e+03    -  9.82e-03 2.62e-05h 14
   9 -5.4301890e+00 8.56e+00 1.41e+02  -6.0 4.25e+03    -  2.79e-03 1.37e-05h 15
iter    objective    inf_pr   inf_du lg(mu)  ||d||  lg(rg) alpha_du alpha_pr  ls
  10 -5.4237200e+00 8.51e+00 1.07e+02  -6.0 4.27e+03    -  6.33e-03 6.33e-03s 20
  11r-5.4237200e+00 8.51e+00 9.99e+02   0.9 0.00e+00    -  0.00e+00 0.00e+00R  1
  12r-5.4311715e+00 8.51e+00 2.22e+03   0.9 8.57e+04    -  3.53e-07 2.98e-08f  1
  13 -5.4451322e+00 8.49e+00 1.44e+03  -6.0 3.22e+05    -  8.26e-06 1.51e-03h  1
  14 -5.4476721e+00 8.47e+00 1.57e+03  -6.0 1.94e+05    -  4.91e-06 2.69e-03h  1
  15 -5.4587481e+00 1.11e+01 9.92e+03  -6.0 1.98e+04    -  1.88e-02 3.79e-02h  1
  16 -5.5137028e+00 1.42e+01 1.42e+04  -6.0 3.11e+04    -  1.63e-05 1.59e-02h  1
  17 -5.5642985e+00 2.39e+01 6.79e+04  -6.0 3.77e+04    -  1.80e-02 2.80e-02h  1
  18 -5.5713815e+00 2.49e+01 6.92e+04  -6.0 1.89e+04    -  8.21e-03 1.71e-02h  1
  19 -5.5768537e+00 2.50e+01 6.84e+04  -6.0 3.31e+04    -  2.54e-02 9.30e-03h  1
iter    objective    inf_pr   inf_du lg(mu)  ||d||  lg(rg) alpha_du alpha_pr  ls
  20 -5.5900311e+00 5.32e+01 7.28e+04  -6.0 3.06e+04    -  1.64e-02 4.79e-02h  1
  21 -5.5938351e+00 7.20e+01 1.25e+05  -6.0 1.77e+04    -  1.09e-02 1.04e-01h  1
  22 -5.5955694e+00 7.15e+01 1.24e+05  -6.0 5.58e+04    -  2.52e-02 7.54e-03h  1
  23 -5.5989608e+00 6.50e+01 1.61e+05  -6.0 4.51e+03    -  3.64e-02 2.54e-01h  1
  24r-5.5989608e+00 6.50e+01 9.99e+02   1.7 0.00e+00    -  0.00e+00 4.83e-07R  5
  25r-5.6100228e+00 6.50e+01 9.99e+02   1.7 5.18e+05    -  7.77e-08 3.17e-08f  1
  26 -5.6283933e+00 6.49e+01 7.38e+02  -6.0 1.36e+05    -  1.58e-03 1.50e-03h  1
  27 -5.6669084e+00 6.44e+01 1.10e+03  -6.0 1.21e+05    -  7.63e-03 8.26e-03f  1
  28 -5.7028749e+00 6.38e+01 1.24e+03  -6.0 6.10e+04    -  1.95e-02 1.16e-02h  1
  29 -5.7097245e+00 6.23e+01 1.15e+03  -6.0 1.05e+04    -  7.47e-03 4.14e-02h  1
iter    objective    inf_pr   inf_du lg(mu)  ||d||  lg(rg) alpha_du alpha_pr  ls
  30 -5.7115904e+00 6.13e+01 1.11e+03  -6.0 6.30e+03    -  9.87e-02 2.37e-02h  1
  31 -5.7183222e+00 6.01e+01 1.07e+03  -6.0 6.44e+03    -  6.44e-02 3.56e-02h  1
  32r-5.7183222e+00 6.01e+01 9.99e+02   1.7 0.00e+00    -  0.00e+00 4.13e-07R  2
  33r-5.7328081e+00 6.00e+01 9.99e+02   1.7 2.13e+07    -  1.80e-07 5.83e-08f  1
  34 -5.7354752e+00 5.99e+01 4.24e+02  -6.0 2.80e+05    -  2.48e-05 1.32e-03h  1
  35 -5.7453286e+00 5.96e+01 4.23e+02  -6.0 2.59e+05    -  1.85e-03 4.81e-03f  1
  36 -5.7710742e+00 5.91e+01 4.23e+02  -6.0 1.09e+05    -  5.06e-04 8.87e-03h  1
  37 -5.7905340e+00 6.42e+01 3.99e+02  -6.0 2.02e+04    -  5.48e-02 6.25e-02f  1
  38 -5.8855408e+00 5.14e+01 3.97e+02  -6.0 1.26e+04    -  1.11e-01 2.12e-01h  1
  39 -5.9624455e+00 4.02e+01 2.55e+03  -6.0 6.47e+03    -  2.04e-02 2.17e-01h  1
iter    objective    inf_pr   inf_du lg(mu)  ||d||  lg(rg) alpha_du alpha_pr  ls
  40 -5.9731936e+00 3.17e+01 2.01e+03  -6.0 1.30e+03    -  1.10e-02 2.12e-01h  1
  41r-5.9731936e+00 3.17e+01 9.99e+02   1.4 0.00e+00    -  0.00e+00 3.68e-07R  4
  42r-5.9889236e+00 3.17e+01 9.99e+02   1.4 2.51e+07    -  5.18e-08 8.68e-08f  1
  43 -6.0092430e+00 3.18e+01 3.59e+02  -6.0 1.27e+06    -  1.30e-05 3.14e-03h  1
  44 -6.0652626e+00 3.18e+01 3.58e+02  -6.0 4.80e+05    -  3.43e-06 1.41e-03h  1
  45 -6.5701801e+00 3.23e+01 3.46e+02  -6.0 6.97e+05    -  2.21e-04 1.34e-02h  1
  46 -6.9097602e+00 3.23e+01 3.37e+02  -6.0 4.20e+05    -  1.24e-05 8.83e-03h  1
  47 -6.9119116e+00 3.23e+01 3.37e+02  -6.0 4.97e+05    -  9.63e-05 1.10e-04h  1
  48 -7.0107240e+00 5.80e+01 3.54e+02  -6.0 4.70e+05    -  5.93e-04 1.70e-02f  1
  49 -6.9420446e+00 5.51e+01 3.84e+02  -6.0 7.22e+01  -4.0 3.19e-03 4.99e-02h  2
iter    objective    inf_pr   inf_du lg(mu)  ||d||  lg(rg) alpha_du alpha_pr  ls
  50 -6.6826784e+00 4.44e+01 1.04e+03  -6.0 5.70e+01  -4.5 1.73e-02 1.94e-01h  1
  51 -6.0749987e+00 1.94e+01 5.03e+03  -6.0 4.88e+01  -5.0 2.41e-01 5.64e-01h  1
  52 -6.0927479e+00 1.73e+01 4.44e+03  -6.0 6.48e+03    -  2.48e-01 1.19e-01h  1
  53 -6.0927155e+00 1.56e+01 3.97e+03  -6.0 4.97e+03    -  6.33e-01 1.01e-01h  1
  54 -5.9864461e+00 1.06e+01 1.41e+04  -6.0 1.03e+02  -3.6 1.29e-06 3.23e-01h  1
  55 -5.9652826e+00 9.52e+00 2.98e+04  -6.0 3.70e+01  -3.2 9.80e-03 9.95e-02h  1
  56 -5.7726493e+00 4.94e-01 1.92e+03  -6.0 8.68e+00  -3.7 5.57e-01 9.48e-01h  1
  57 -5.7700981e+00 3.29e-01 6.66e+06  -6.0 4.37e+00  -4.2 4.45e-01 3.33e-01h  1
  58 -5.7699002e+00 2.03e-01 2.69e+07  -6.0 9.41e+00  -4.6 3.70e-01 3.84e-01h  1
  59 -5.7722007e+00 1.36e-01 1.72e+07  -6.0 1.89e+01  -5.1 3.40e-01 3.31e-01h  1
iter    objective    inf_pr   inf_du lg(mu)  ||d||  lg(rg) alpha_du alpha_pr  ls
  60 -5.7830849e+00 9.62e-01 6.82e+06  -6.0 4.71e+01  -5.6 6.99e-02 4.73e-01h  1
  61 -5.8344907e+00 4.00e-01 1.01e+07  -6.0 1.18e+02  -6.1 2.67e-01 1.00e+00h  1
  62 -5.8323029e+00 1.64e-01 4.02e+06  -6.0 7.00e+00  -4.7 5.44e-01 5.91e-01h  1
  63 -5.8366517e+00 8.15e-02 1.53e+05  -6.0 2.97e+00  -4.3 9.00e-02 1.00e+00h  1
  64 -5.8367834e+00 6.28e-02 1.16e+05  -6.0 1.29e+00  -3.9 1.69e-01 2.39e-01h  1
  65 -5.8394722e+00 1.08e-01 3.21e+04  -6.0 3.26e+00  -4.4 1.20e-01 6.82e-01f  1
  66 -5.8426395e+00 5.46e-01 2.35e+04  -6.0 1.65e+01  -4.8 4.29e-01 2.57e-01f  1
  67 -5.8450848e+00 6.72e-01 2.02e+04  -6.0 2.13e+01  -5.3 4.88e-01 1.36e-01h  1
  68 -5.8624434e+00 7.87e+00 9.03e+03  -6.0 5.90e+01  -5.8 5.52e-01 5.07e-01f  1
  69 -5.8788480e+00 1.04e+01 6.26e+03  -6.0 1.45e+02  -6.3 9.37e-01 3.33e-01h  1
iter    objective    inf_pr   inf_du lg(mu)  ||d||  lg(rg) alpha_du alpha_pr  ls
  70 -5.8969740e+00 1.06e+01 4.79e+03  -6.0 2.37e+02  -6.7 4.71e-01 2.59e-01h  1
  71 -5.8969895e+00 1.05e+01 4.77e+03  -6.0 2.00e+01  -5.4 1.00e+00 5.16e-03h  1
  72 -5.9041730e+00 3.58e+00 1.70e+03  -6.0 5.44e+01  -5.9 1.00e+00 6.56e-01h  1
  73 -5.9288172e+00 2.32e-01 1.98e+02  -6.0 1.16e+02  -6.4 1.00e+00 9.75e-01h  1
  74 -5.9446506e+00 2.65e-01 1.40e+03  -6.0 1.42e+02  -6.8 1.00e+00 8.00e-01h  1
  75 -5.9602540e+00 2.60e-01 3.37e+03  -6.0 2.99e+02  -7.3 1.00e+00 5.38e-01h  1
  76 -5.9716166e+00 4.81e-01 3.76e+03  -6.0 9.23e+02  -7.8 3.44e-01 2.40e-01h  1
  77 -5.9716177e+00 4.81e-01 1.06e+04  -6.0 3.92e+03  -7.4 2.25e-01 2.77e-06h  2
  78 -6.0143410e+00 3.29e+00 4.57e+03  -6.0 8.26e+02  -7.9 6.24e-01 1.00e+00h  1
  79 -6.0389318e+00 2.55e+00 9.81e+03  -6.0 2.61e+03    -  2.07e-01 2.85e-01h  1
iter    objective    inf_pr   inf_du lg(mu)  ||d||  lg(rg) alpha_du alpha_pr  ls
  80 -6.0804683e+00 1.69e+01 1.04e+04  -6.0 1.82e+03    -  9.21e-01 1.00e+00h  1
  81 -6.0778330e+00 1.16e+01 3.05e+05  -6.0 1.96e+02    -  1.00e+00 3.12e-01h  1
  82 -6.0787425e+00 7.08e+00 3.51e+05  -6.0 8.73e+01    -  1.00e+00 3.90e-01h  1
  83r-6.0787425e+00 7.08e+00 1.00e+03   0.8 0.00e+00    -  0.00e+00 3.21e-07R  2
  84r-6.1044874e+00 7.08e+00 1.51e+03   0.8 2.54e+04    -  6.16e-07 4.98e-07f  1
  85 -6.0992877e+00 6.04e+00 1.39e+05  -6.0 7.90e+00    -  2.32e-01 1.46e-01h  1
  86 -6.0907390e+00 4.34e+00 4.48e+05  -6.0 4.69e+00    -  1.46e-01 2.82e-01h  1
  87 -6.0740646e+00 9.75e-01 1.01e+05  -6.0 3.32e+00    -  4.79e-01 7.75e-01h  1
  88 -6.0695978e+00 1.01e-04 1.48e+01  -6.0 1.02e+00    -  9.14e-01 1.00e+00h  1
  89 -6.0698203e+00 9.69e-05 6.30e+01  -6.0 4.35e+00    -  9.64e-01 2.08e-01h  1
iter    objective    inf_pr   inf_du lg(mu)  ||d||  lg(rg) alpha_du alpha_pr  ls
  90 -6.0799316e+00 1.21e-01 1.46e+02  -6.0 5.67e+01    -  4.07e-01 9.69e-01f  1
  91 -6.0800029e+00 1.10e-01 1.47e+02  -6.0 4.57e+01    -  6.01e-01 9.06e-02h  1
  92 -6.0801074e+00 1.75e-01 5.29e+01  -6.0 8.78e+01    -  9.03e-01 1.00e+00F  1
  93 -6.0869360e+00 1.04e+00 3.42e+01  -6.0 4.81e+02    -  4.43e-01 3.80e-01h  1
  94 -6.0885065e+00 1.19e+00 1.72e+02  -6.0 1.68e+04    -  1.80e-02 4.27e-03h  1
  95 -6.1002134e+00 7.21e-01 1.78e+03  -6.0 1.57e+02    -  8.10e-01 1.00e+00h  1
  96 -6.1067935e+00 1.30e+00 1.26e+03  -6.0 6.45e+02  -7.4 2.54e-01 2.49e-01h  1
  97 -6.1218758e+00 1.31e+00 5.28e+04  -6.0 2.14e+02  -7.9 1.56e-01 1.00e+00h  1
  98 -6.1237850e+00 1.19e+00 1.21e+04  -6.0 2.08e+02  -7.5 2.59e-01 9.94e-02h  1
  99 -6.1397537e+00 1.07e+00 6.32e+04  -6.0 2.07e+02  -7.1 2.68e-01 8.73e-01h  1
iter    objective    inf_pr   inf_du lg(mu)  ||d||  lg(rg) alpha_du alpha_pr  ls
 100 -6.1402909e+00 1.06e+00 1.69e+05  -6.0 1.06e+03  -7.5 1.47e-05 1.62e-02h  1
 101 -6.1535087e+00 1.17e+00 1.19e+05  -6.0 2.44e+02  -7.1 5.00e-01 7.33e-01h  1
 102r-6.1535087e+00 1.17e+00 1.00e+03   0.1 0.00e+00  -7.6 0.00e+00 2.94e-07R  4
 103r-6.1643854e+00 1.17e+00 1.00e+03   0.1 1.22e+04    -  6.88e-06 1.57e-06f  1
 104 -6.1641826e+00 1.15e+00 3.32e+05  -6.0 1.30e+01    -  2.22e-01 1.64e-02h  1
 105 -6.1573501e+00 8.41e-01 5.80e+06  -6.0 1.23e+01    -  1.64e-02 2.71e-01h  1
 106 -6.1527894e+00 1.86e-01 1.27e+06  -6.0 1.03e+01    -  4.90e-01 7.82e-01h  1
 107 -6.1497485e+00 2.08e-04 1.50e+01  -6.0 2.55e+00    -  9.26e-01 1.00e+00h  1
 108 -6.1506693e+00 1.45e-04 1.36e+01  -6.0 2.38e+00    -  8.80e-01 4.31e-01h  1
 109 -6.1524145e+00 3.43e-03 9.85e+00  -6.0 1.45e+01    -  9.66e-01 9.97e-01f  1
iter    objective    inf_pr   inf_du lg(mu)  ||d||  lg(rg) alpha_du alpha_pr  ls
 110 -6.1585545e+00 1.05e+00 2.14e+00  -6.0 2.73e+02    -  8.76e-01 9.28e-01h  1
 111 -6.1657332e+00 3.72e-01 4.38e+00  -6.0 1.88e+02  -7.2 7.50e-01 9.02e-01h  1
 112 -6.1776235e+00 1.54e+00 1.84e+04  -6.0 7.77e+02  -7.6 2.12e-02 4.36e-01h  1
 113 -6.1803448e+00 1.40e+00 1.51e+04  -6.0 2.29e+02  -6.3 2.64e-01 9.06e-02h  1
 114 -6.1805300e+00 1.40e+00 1.43e+04  -6.0 3.09e+04    -  1.48e-02 2.12e-04h  1
 115 -6.2149678e+00 7.58e+00 1.49e+04  -6.0 3.01e+04    -  1.90e-02 4.05e-02f  1
 116 -6.2318097e+00 2.54e+00 3.76e+03  -6.0 2.21e+03    -  5.47e-01 1.00e+00h  1
 117 -6.2264093e+00 8.68e-01 1.29e+04  -6.0 2.21e+02    -  2.70e-01 6.79e-01h  1
 118 -6.2209751e+00 2.55e-01 1.25e+03  -6.0 9.86e+01    -  6.03e-01 1.00e+00h  1
 119 -6.2220742e+00 4.24e-02 6.83e+01  -6.0 3.65e+01    -  9.35e-01 1.00e+00h  1
iter    objective    inf_pr   inf_du lg(mu)  ||d||  lg(rg) alpha_du alpha_pr  ls
 120 -6.2219054e+00 1.43e-03 5.33e-01  -6.0 6.44e+00    -  1.00e+00 1.00e+00h  1
 121 -6.2219001e+00 1.73e-04 1.52e-02  -6.0 2.05e+00    -  1.00e+00 1.00e+00h  1
 122 -6.2218960e+00 8.34e-06 5.43e-04  -6.0 4.50e-01    -  1.00e+00 1.00e+00h  1
 123 -6.2218958e+00 7.79e-09 4.93e-07  -6.0 1.38e-02    -  1.00e+00 1.00e+00h  1
 124 -6.2219587e+00 8.88e-02 8.08e+01  -7.5 1.11e+02    -  9.30e-01 6.51e-01h  1
 125 -6.2219719e+00 3.42e-02 1.44e+01  -7.5 4.14e+01    -  1.00e+00 8.58e-01h  1
 126 -6.2219716e+00 4.61e-04 1.02e-02  -7.5 5.16e+00    -  1.00e+00 1.00e+00h  1
 127 -6.2219716e+00 2.85e-10 8.48e-07  -7.5 1.97e-03    -  1.00e+00 1.00e+00h  1
 128 -6.2219716e+00 2.85e-10 9.17e-10  -7.5 1.04e-04    -  1.00e+00 1.00e+00h  1
 129 -6.2219730e+00 1.58e-04 8.10e-01  -9.0 3.64e+00    -  9.23e-01 8.34e-01h  1
iter    objective    inf_pr   inf_du lg(mu)  ||d||  lg(rg) alpha_du alpha_pr  ls
 130 -6.2219733e+00 6.27e-06 1.41e-01  -9.0 6.05e-01    -  9.68e-01 1.00e+00f  1
 131 -6.2219733e+00 2.86e-10 4.68e-09  -9.0 1.06e-04    -  1.00e+00 1.00e+00h  1

Number of Iterations....: 131

                                   (scaled)                 (unscaled)
Objective...............:  -4.8609166235563297e+00   -6.2219732781521024e+00
Dual infeasibility......:   4.6776812164516429e-09    5.9874319570581027e-09
Constraint violation....:   2.8553200060420225e-10    2.8553200060420225e-10
Complementarity.........:   1.4497994765527433e-09    1.8557433299875114e-09
Overall NLP error.......:   4.6776812164516429e-09    5.9874319570581027e-09


Number of objective function evaluations             = 237
Number of objective gradient evaluations             = 132
Number of equality constraint evaluations            = 237
Number of inequality constraint evaluations          = 237
Number of equality constraint Jacobian evaluations   = 138
Number of inequality constraint Jacobian evaluations = 138
Number of Lagrangian Hessian evaluations             = 131
Total CPU secs in IPOPT (w/o function evaluations)   =    246.604
Total CPU secs in NLP function evaluations           =      5.633

EXIT: Optimal Solution Found.
